proyfinal/src/viki/013/experimentInOfficeAgust.take6.output/9892c458-f53e-4e69-8a02-a91905e5ceae.als.out
Reading from standard input... Use '--help' for help.
============================[ Problem Statistics ]=============================
|                                                                             |
|  Number of variables:         87638                                         |
|  Number of clauses:          161767                                         |
|  Parse time:                   0.03 s                                       |
|                                                                             |
============================[ Search Statistics ]==============================
| Conflicts |          ORIGINAL         |          LEARNT          | Progress |
|           |    Vars  Clauses Literals |    Limit  Clauses Lit/Cl |          |
===============================================================================
|       100 |   63562   109520   273914 |    40157      100     32 | 27.472 % |
|       250 |   63561   109476   273824 |    44173      249     27 | 27.473 % |
|       475 |   44017    51132   130309 |    48590      463     55 | 49.774 % |
|       812 |   44017    51132   130309 |    53449      800     43 | 49.774 % |
|      1318 |   44017    51132   130309 |    58794     1306     39 | 49.774 % |
|      2077 |   44017    51132   130309 |    64673     2065     35 | 49.774 % |
|      3216 |   43604    49347   125455 |    71141     1654     31 | 50.245 % |
===============================================================================
restarts              : 17
conflicts             : 3322           (11050 /sec)
decisions             : 13688          (0.00 % random) (45529 /sec)
propagations          : 4171548        (13875513 /sec)
conflict literals     : 105504         (27.12 % deleted)
Memory used           : 23.97 MB
CPU time              : 0.300641 s

UNSATISFIABLE
